Maximize
  - 5.205373899821 edge_0_1_0_0 - 4.43483 edge_0_2_0_0
   - 1.307788857544 edge_0_3_0_0 - 3.7391376284262 edge_0_4_0_0
   - 2.3926345935775 edge_0_6_0_0 - 2.838222418187 edge_0_7_0_0
   - 3.6851071937807 edge_0_9_0_0 - 3.6833131376839 edge_0_10_0_0
   - 3.8207151677308 edge_0_12_0_0 - 3.3381440068836 edge_0_13_0_0
   - 0.99597839071368 edge_0_17_0_0 + 0.92600283918527 edge_1_2_0_0
   + 0.3935921242842799 edge_1_3_0_0 + 0.2737257348064442 edge_1_6_0_0
   - 0.5293588884966165 edge_1_7_0_0 - 1.215728339039903 edge_1_11_0_0
   - 2.918015994910193 edge_1_12_0_0 - 1.319042752527184 edge_1_18_0_0
   + 0.5749368787361703 edge_2_1_0_0 + 1.8171286216627 edge_2_3_0_0
   - 0.7082560862962199 edge_2_4_0_0 + 1.3066190574024 edge_2_5_0_0
   + 0.7598374552096699 edge_2_6_0_0 + 0.6986215230852 edge_2_7_0_0
   + 0.4823416493049 edge_2_8_0_0 - 0.2684920049136447 edge_2_9_0_0
   + 0.9631904044734301 edge_2_10_0_0 - 0.1877652936924476 edge_2_11_0_0
   + 0.33028096864122 edge_2_12_0_0 + 0.82567516606724 edge_2_13_0_0
   + 0.15611292851227 edge_2_15_0_0 - 0.9308102274268701 edge_2_17_0_0
   + 1.39498 edge_2_18_0_0 + 2.128426233702509 edge_3_1_0_0
   + 2.158518276854073 edge_3_2_0_0 + 2.170827301945005 edge_3_4_0_0
   + 1.525422319733033 edge_3_5_0_0 + 3.104801570567338 edge_3_6_0_0
   + 2.665162042201633 edge_3_7_0_0 + 2.226904698471816 edge_3_8_0_0
   + 1.013506747936136 edge_3_9_0_0 + 0.2945702089241331 edge_3_10_0_0
   + 0.231394484838878 edge_3_11_0_0 + 0.00594272345217898 edge_3_12_0_0
   + 1.256371633236884 edge_3_13_0_0 + 2.525228721095588 edge_3_15_0_0
   + 1.560440294486417 edge_3_17_0_0 + 2.620114303747436 edge_3_18_0_0
   + 0.3107335395029456 edge_4_1_0_0 + 0.1809771283782 edge_4_2_0_0
   + 1.310435993980405 edge_4_3_0_0 + 1.458927850985435 edge_4_6_0_0
   + 1.083351369133398 edge_4_7_0_0 + 0.9868725947471471 edge_4_8_0_0
   + 0.5199811220717575 edge_4_9_0_0 + 4.0439974071825719e-04 edge_4_13_0_0
   + 0.7122262415494073 edge_4_15_0_0 + 0.1069253688149677 edge_4_17_0_0
   + 0.2838284624187967 edge_4_18_0_0 + 0.6360606637270579 edge_6_1_0_0
   + 1.053601759534661 edge_6_2_0_0 + 0.698413236795545 edge_6_3_0_0
   - 0.00584204599537997 edge_6_4_0_0 - 0.0414665505372338 edge_6_5_0_0
   + 1.015396709984928 edge_6_7_0_0 + 0.1544620404225318 edge_6_8_0_0
   + 0.2524729333077619 edge_6_9_0_0 + 0.0693975539233888 edge_6_10_0_0
   - 0.597567722484449 edge_6_11_0_0 - 0.0321788898421639 edge_6_12_0_0
   + 0.0119538197318569 edge_6_13_0_0 - 0.2475489445148145 edge_6_15_0_0
   - 1.69558951898011 edge_6_17_0_0 - 2.183675630868122 edge_6_18_0_0
   - 1.30794393578717 edge_7_1_0_0 + 0.98980679955365 edge_7_2_0_0
   + 0.6847193314630786 edge_7_3_0_0 + 0.3686295801780164 edge_7_4_0_0
   + 1.889569822793041 edge_7_5_0_0 + 2.682495582720444 edge_7_6_0_0
   + 1.403770721547273 edge_7_8_0_0 + 1.222009168020397 edge_7_9_0_0
   + 1.106247627650533 edge_7_10_0_0 + 0.3245715768950441 edge_7_12_0_0
   + 1.495252325484616 edge_7_13_0_0 + 0.943956711480575 edge_7_15_0_0
   + 1.358773671957793 edge_7_17_0_0 + 2.557657306971 edge_7_18_0_0
   - 0.576954309503248 edge_8_7_0_0 - 0.0247773947688102 edge_8_9_0_0
   - 0.8794998554729219 edge_8_13_0_0 - 0.5957164893510297 edge_9_1_0_0
   - 0.1882012929196029 edge_9_2_0_0 + 0.2757967722715739 edge_9_3_0_0
   + 0.2637056254716556 edge_9_4_0_0 + 0.5790707122105667 edge_9_6_0_0
   + 0.5538351606469042 edge_9_7_0_0 + 1.651623665117863 edge_9_8_0_0
   + 1.325264644541295 edge_9_11_0_0 - 0.3696465327885192 edge_9_12_0_0
   + 0.7513065437836487 edge_9_13_0_0 + 0.5810902573265481 edge_9_15_0_0
   + 0.4162623028507093 edge_9_17_0_0 + 0.222010788391303 edge_9_18_0_0
   - 0.20619248883576 edge_10_2_0_0 - 0.3473594045748902 edge_10_3_0_0
   + 0.2043060790781656 edge_10_5_0_0 + 1.129081597919864 edge_10_6_0_0
   + 0.8015430615982596 edge_10_7_0_0 + 0.7512276925131042 edge_10_8_0_0
   + 1.29709006368689 edge_10_12_0_0 + 1.805941062776484 edge_10_13_0_0
   + 1.032004901876487 edge_10_15_0_0 - 0.11049820949579 edge_10_17_0_0
   + 1.9726034245246 edge_10_18_0_0 - 0.89351042797244 edge_12_2_0_0
   - 0.3907369853113983 edge_12_5_0_0 - 0.3054116275096357 edge_12_6_0_0
   - 0.4897759407884243 edge_12_7_0_0 + 0.082134968316421 edge_12_8_0_0
   + 0.5418478562696604 edge_12_10_0_0 + 0.6065193596978642 edge_12_11_0_0
   + 0.599081920709668 edge_12_13_0_0 + 0.192960583012313 edge_12_15_0_0
   - 1.227497558062281 edge_12_17_0_0 - 0.29324615773723 edge_12_18_0_0
   - 0.4833190264059973 edge_13_1_0_0 - 0.48981550528584 edge_13_2_0_0
   + 0.2809484898190624 edge_13_3_0_0 + 0.208128447538108 edge_13_4_0_0
   + 0.2227685768183102 edge_13_5_0_0 - 0.2959314556762602 edge_13_6_0_0
   + 0.5187836982741409 edge_13_7_0_0 + 0.5762633961858227 edge_13_8_0_0
   + 0.350169309647673 edge_13_9_0_0 + 0.8696871421241694 edge_13_10_0_0
   + 1.889221360813297 edge_13_11_0_0 + 3.218208589159178 edge_13_12_0_0
   + 1.548930532408383 edge_13_15_0_0 + 1.435077359454003 edge_13_17_0_0
   + 2.1388278397817 edge_13_18_0_0 - 0.6001056223473114 edge_15_12_0_0
   - 0.9417217231103253 edge_15_13_0_0 - 0.1868635849341481 edge_15_17_0_0
   - 0.9414166944640732 edge_16_3_0_0 + 0.084573472167481 edge_16_18_0_0
   - 1.102182867803865 edge_17_1_0_0 - 0.2676796327667294 edge_17_2_0_0
   + 0.1480875401490381 edge_17_3_0_0 - 1.631088989556833 edge_17_4_0_0
   + 0.7963583727799221 edge_17_5_0_0 + 0.4006773173722405 edge_17_6_0_0
   - 0.3450979922615259 edge_17_7_0_0 - 0.3293068251416083 edge_17_8_0_0
   - 0.0909561365979123 edge_17_9_0_0 + 0.246650237478293 edge_17_10_0_0
   - 0.0110226187108793 edge_17_11_0_0 + 0.6346061497571684 edge_17_12_0_0
   + 0.069970146958749 edge_17_13_0_0 + 1.127430021835505 edge_17_15_0_0
   + 3.656743298864343 edge_17_16_0_0 + 2.145049851690123 edge_17_18_0_0
Subject To
 one_parent_1: edge_0_1_0_0 + edge_2_1_0_0 + edge_3_1_0_0 + edge_4_1_0_0
   + edge_6_1_0_0 + edge_7_1_0_0 + edge_9_1_0_0 + edge_13_1_0_0
   + edge_17_1_0_0 = 1
 consume_one_flow_unit_1: flow_0_1_0_0 - flow_1_2_0_0 - flow_1_3_0_0
   - flow_1_6_0_0 - flow_1_7_0_0 - flow_1_11_0_0 - flow_1_12_0_0
   - flow_1_18_0_0 + flow_2_1_0_0 + flow_3_1_0_0 + flow_4_1_0_0
   + flow_6_1_0_0 + flow_7_1_0_0 + flow_9_1_0_0 + flow_13_1_0_0
   + flow_17_1_0_0 = 1
 one_parent_2: edge_0_2_0_0 + edge_1_2_0_0 + edge_3_2_0_0 + edge_4_2_0_0
   + edge_6_2_0_0 + edge_7_2_0_0 + edge_9_2_0_0 + edge_10_2_0_0
   + edge_12_2_0_0 + edge_13_2_0_0 + edge_17_2_0_0 = 1
 consume_one_flow_unit_2: flow_0_2_0_0 + flow_1_2_0_0 - flow_2_1_0_0
   - flow_2_3_0_0 - flow_2_4_0_0 - flow_2_5_0_0 - flow_2_6_0_0
   - flow_2_7_0_0 - flow_2_8_0_0 - flow_2_9_0_0 - flow_2_10_0_0
   - flow_2_11_0_0 - flow_2_12_0_0 - flow_2_13_0_0 - flow_2_15_0_0
   - flow_2_17_0_0 - flow_2_18_0_0 + flow_3_2_0_0 + flow_4_2_0_0
   + flow_6_2_0_0 + flow_7_2_0_0 + flow_9_2_0_0 + flow_10_2_0_0
   + flow_12_2_0_0 + flow_13_2_0_0 + flow_17_2_0_0 = 1
 one_parent_3: edge_0_3_0_0 + edge_1_3_0_0 + edge_2_3_0_0 + edge_4_3_0_0
   + edge_6_3_0_0 + edge_7_3_0_0 + edge_9_3_0_0 + edge_10_3_0_0
   + edge_13_3_0_0 + edge_16_3_0_0 + edge_17_3_0_0 = 1
 consume_one_flow_unit_3: flow_0_3_0_0 + flow_1_3_0_0 + flow_2_3_0_0
   - flow_3_1_0_0 - flow_3_2_0_0 - flow_3_4_0_0 - flow_3_5_0_0
   - flow_3_6_0_0 - flow_3_7_0_0 - flow_3_8_0_0 - flow_3_9_0_0
   - flow_3_10_0_0 - flow_3_11_0_0 - flow_3_12_0_0 - flow_3_13_0_0
   - flow_3_15_0_0 - flow_3_17_0_0 - flow_3_18_0_0 + flow_4_3_0_0
   + flow_6_3_0_0 + flow_7_3_0_0 + flow_9_3_0_0 + flow_10_3_0_0
   + flow_13_3_0_0 + flow_16_3_0_0 + flow_17_3_0_0 = 1
 one_parent_4: edge_0_4_0_0 + edge_2_4_0_0 + edge_3_4_0_0 + edge_6_4_0_0
   + edge_7_4_0_0 + edge_9_4_0_0 + edge_13_4_0_0 + edge_17_4_0_0 = 1
 consume_one_flow_unit_4: flow_0_4_0_0 + flow_2_4_0_0 + flow_3_4_0_0
   - flow_4_1_0_0 - flow_4_2_0_0 - flow_4_3_0_0 - flow_4_6_0_0
   - flow_4_7_0_0 - flow_4_8_0_0 - flow_4_9_0_0 - flow_4_13_0_0
   - flow_4_15_0_0 - flow_4_17_0_0 - flow_4_18_0_0 + flow_6_4_0_0
   + flow_7_4_0_0 + flow_9_4_0_0 + flow_13_4_0_0 + flow_17_4_0_0 = 1
 one_parent_5: edge_2_5_0_0 + edge_3_5_0_0 + edge_6_5_0_0 + edge_7_5_0_0
   + edge_10_5_0_0 + edge_12_5_0_0 + edge_13_5_0_0 + edge_17_5_0_0 = 1
 consume_one_flow_unit_5: flow_2_5_0_0 + flow_3_5_0_0 + flow_6_5_0_0
   + flow_7_5_0_0 + flow_10_5_0_0 + flow_12_5_0_0 + flow_13_5_0_0
   + flow_17_5_0_0 = 1
 one_parent_6: edge_0_6_0_0 + edge_1_6_0_0 + edge_2_6_0_0 + edge_3_6_0_0
   + edge_4_6_0_0 + edge_7_6_0_0 + edge_9_6_0_0 + edge_10_6_0_0
   + edge_12_6_0_0 + edge_13_6_0_0 + edge_17_6_0_0 = 1
 consume_one_flow_unit_6: flow_0_6_0_0 + flow_1_6_0_0 + flow_2_6_0_0
   + flow_3_6_0_0 + flow_4_6_0_0 - flow_6_1_0_0 - flow_6_2_0_0
   - flow_6_3_0_0 - flow_6_4_0_0 - flow_6_5_0_0 - flow_6_7_0_0
   - flow_6_8_0_0 - flow_6_9_0_0 - flow_6_10_0_0 - flow_6_11_0_0
   - flow_6_12_0_0 - flow_6_13_0_0 - flow_6_15_0_0 - flow_6_17_0_0
   - flow_6_18_0_0 + flow_7_6_0_0 + flow_9_6_0_0 + flow_10_6_0_0
   + flow_12_6_0_0 + flow_13_6_0_0 + flow_17_6_0_0 = 1
 one_parent_7: edge_0_7_0_0 + edge_1_7_0_0 + edge_2_7_0_0 + edge_3_7_0_0
   + edge_4_7_0_0 + edge_6_7_0_0 + edge_8_7_0_0 + edge_9_7_0_0
   + edge_10_7_0_0 + edge_12_7_0_0 + edge_13_7_0_0 + edge_17_7_0_0 = 1
 consume_one_flow_unit_7: flow_0_7_0_0 + flow_1_7_0_0 + flow_2_7_0_0
   + flow_3_7_0_0 + flow_4_7_0_0 + flow_6_7_0_0 - flow_7_1_0_0
   - flow_7_2_0_0 - flow_7_3_0_0 - flow_7_4_0_0 - flow_7_5_0_0
   - flow_7_6_0_0 - flow_7_8_0_0 - flow_7_9_0_0 - flow_7_10_0_0
   - flow_7_12_0_0 - flow_7_13_0_0 - flow_7_15_0_0 - flow_7_17_0_0
   - flow_7_18_0_0 + flow_8_7_0_0 + flow_9_7_0_0 + flow_10_7_0_0
   + flow_12_7_0_0 + flow_13_7_0_0 + flow_17_7_0_0 = 1
 one_parent_8: edge_2_8_0_0 + edge_3_8_0_0 + edge_4_8_0_0 + edge_6_8_0_0
   + edge_7_8_0_0 + edge_9_8_0_0 + edge_10_8_0_0 + edge_12_8_0_0
   + edge_13_8_0_0 + edge_17_8_0_0 = 1
 consume_one_flow_unit_8: flow_2_8_0_0 + flow_3_8_0_0 + flow_4_8_0_0
   + flow_6_8_0_0 + flow_7_8_0_0 - flow_8_7_0_0 - flow_8_9_0_0
   - flow_8_13_0_0 + flow_9_8_0_0 + flow_10_8_0_0 + flow_12_8_0_0
   + flow_13_8_0_0 + flow_17_8_0_0 = 1
 one_parent_9: edge_0_9_0_0 + edge_2_9_0_0 + edge_3_9_0_0 + edge_4_9_0_0
   + edge_6_9_0_0 + edge_7_9_0_0 + edge_8_9_0_0 + edge_13_9_0_0
   + edge_17_9_0_0 = 1
 consume_one_flow_unit_9: flow_0_9_0_0 + flow_2_9_0_0 + flow_3_9_0_0
   + flow_4_9_0_0 + flow_6_9_0_0 + flow_7_9_0_0 + flow_8_9_0_0
   - flow_9_1_0_0 - flow_9_2_0_0 - flow_9_3_0_0 - flow_9_4_0_0
   - flow_9_6_0_0 - flow_9_7_0_0 - flow_9_8_0_0 - flow_9_11_0_0
   - flow_9_12_0_0 - flow_9_13_0_0 - flow_9_15_0_0 - flow_9_17_0_0
   - flow_9_18_0_0 + flow_13_9_0_0 + flow_17_9_0_0 = 1
 one_parent_10: edge_0_10_0_0 + edge_2_10_0_0 + edge_3_10_0_0
   + edge_6_10_0_0 + edge_7_10_0_0 + edge_12_10_0_0 + edge_13_10_0_0
   + edge_17_10_0_0 = 1
 consume_one_flow_unit_10: flow_0_10_0_0 + flow_2_10_0_0 + flow_3_10_0_0
   + flow_6_10_0_0 + flow_7_10_0_0 - flow_10_2_0_0 - flow_10_3_0_0
   - flow_10_5_0_0 - flow_10_6_0_0 - flow_10_7_0_0 - flow_10_8_0_0
   - flow_10_12_0_0 - flow_10_13_0_0 - flow_10_15_0_0 - flow_10_17_0_0
   - flow_10_18_0_0 + flow_12_10_0_0 + flow_13_10_0_0 + flow_17_10_0_0 = 1
 one_parent_11: edge_1_11_0_0 + edge_2_11_0_0 + edge_3_11_0_0
   + edge_6_11_0_0 + edge_9_11_0_0 + edge_12_11_0_0 + edge_13_11_0_0
   + edge_17_11_0_0 = 1
 consume_one_flow_unit_11: flow_1_11_0_0 + flow_2_11_0_0 + flow_3_11_0_0
   + flow_6_11_0_0 + flow_9_11_0_0 + flow_12_11_0_0 + flow_13_11_0_0
   + flow_17_11_0_0 = 1
 one_parent_12: edge_0_12_0_0 + edge_1_12_0_0 + edge_2_12_0_0
   + edge_3_12_0_0 + edge_6_12_0_0 + edge_7_12_0_0 + edge_9_12_0_0
   + edge_10_12_0_0 + edge_13_12_0_0 + edge_15_12_0_0 + edge_17_12_0_0 = 1
 consume_one_flow_unit_12: flow_0_12_0_0 + flow_1_12_0_0 + flow_2_12_0_0
   + flow_3_12_0_0 + flow_6_12_0_0 + flow_7_12_0_0 + flow_9_12_0_0
   + flow_10_12_0_0 - flow_12_2_0_0 - flow_12_5_0_0 - flow_12_6_0_0
   - flow_12_7_0_0 - flow_12_8_0_0 - flow_12_10_0_0 - flow_12_11_0_0
   - flow_12_13_0_0 - flow_12_15_0_0 - flow_12_17_0_0 - flow_12_18_0_0
   + flow_13_12_0_0 + flow_15_12_0_0 + flow_17_12_0_0 = 1
 one_parent_13: edge_0_13_0_0 + edge_2_13_0_0 + edge_3_13_0_0
   + edge_4_13_0_0 + edge_6_13_0_0 + edge_7_13_0_0 + edge_8_13_0_0
   + edge_9_13_0_0 + edge_10_13_0_0 + edge_12_13_0_0 + edge_15_13_0_0
   + edge_17_13_0_0 = 1
 consume_one_flow_unit_13: flow_0_13_0_0 + flow_2_13_0_0 + flow_3_13_0_0
   + flow_4_13_0_0 + flow_6_13_0_0 + flow_7_13_0_0 + flow_8_13_0_0
   + flow_9_13_0_0 + flow_10_13_0_0 + flow_12_13_0_0 - flow_13_1_0_0
   - flow_13_2_0_0 - flow_13_3_0_0 - flow_13_4_0_0 - flow_13_5_0_0
   - flow_13_6_0_0 - flow_13_7_0_0 - flow_13_8_0_0 - flow_13_9_0_0
   - flow_13_10_0_0 - flow_13_11_0_0 - flow_13_12_0_0 - flow_13_15_0_0
   - flow_13_17_0_0 - flow_13_18_0_0 + flow_15_13_0_0 + flow_17_13_0_0 = 1
 one_parent_14: = 1
 consume_one_flow_unit_14: = 1
 one_parent_15: edge_2_15_0_0 + edge_3_15_0_0 + edge_4_15_0_0
   + edge_6_15_0_0 + edge_7_15_0_0 + edge_9_15_0_0 + edge_10_15_0_0
   + edge_12_15_0_0 + edge_13_15_0_0 + edge_17_15_0_0 = 1
 consume_one_flow_unit_15: flow_2_15_0_0 + flow_3_15_0_0 + flow_4_15_0_0
   + flow_6_15_0_0 + flow_7_15_0_0 + flow_9_15_0_0 + flow_10_15_0_0
   + flow_12_15_0_0 + flow_13_15_0_0 - flow_15_12_0_0 - flow_15_13_0_0
   - flow_15_17_0_0 + flow_17_15_0_0 = 1
 one_parent_16: edge_17_16_0_0 = 1
 consume_one_flow_unit_16: - flow_16_3_0_0 - flow_16_18_0_0
   + flow_17_16_0_0 = 1
 one_parent_17: edge_0_17_0_0 + edge_2_17_0_0 + edge_3_17_0_0
   + edge_4_17_0_0 + edge_6_17_0_0 + edge_7_17_0_0 + edge_9_17_0_0
   + edge_10_17_0_0 + edge_12_17_0_0 + edge_13_17_0_0 + edge_15_17_0_0 = 1
 consume_one_flow_unit_17: flow_0_17_0_0 + flow_2_17_0_0 + flow_3_17_0_0
   + flow_4_17_0_0 + flow_6_17_0_0 + flow_7_17_0_0 + flow_9_17_0_0
   + flow_10_17_0_0 + flow_12_17_0_0 + flow_13_17_0_0 + flow_15_17_0_0
   - flow_17_1_0_0 - flow_17_2_0_0 - flow_17_3_0_0 - flow_17_4_0_0
   - flow_17_5_0_0 - flow_17_6_0_0 - flow_17_7_0_0 - flow_17_8_0_0
   - flow_17_9_0_0 - flow_17_10_0_0 - flow_17_11_0_0 - flow_17_12_0_0
   - flow_17_13_0_0 - flow_17_15_0_0 - flow_17_16_0_0 - flow_17_18_0_0 = 1
 one_parent_18: edge_1_18_0_0 + edge_2_18_0_0 + edge_3_18_0_0
   + edge_4_18_0_0 + edge_6_18_0_0 + edge_7_18_0_0 + edge_9_18_0_0
   + edge_10_18_0_0 + edge_12_18_0_0 + edge_13_18_0_0 + edge_16_18_0_0
   + edge_17_18_0_0 = 1
 consume_one_flow_unit_18: flow_1_18_0_0 + flow_2_18_0_0 + flow_3_18_0_0
   + flow_4_18_0_0 + flow_6_18_0_0 + flow_7_18_0_0 + flow_9_18_0_0
   + flow_10_18_0_0 + flow_12_18_0_0 + flow_13_18_0_0 + flow_16_18_0_0
   + flow_17_18_0_0 = 1
 root_flow: flow_0_1_0_0 + flow_0_2_0_0 + flow_0_3_0_0 + flow_0_4_0_0
   + flow_0_6_0_0 + flow_0_7_0_0 + flow_0_9_0_0 + flow_0_10_0_0
   + flow_0_12_0_0 + flow_0_13_0_0 + flow_0_17_0_0 = 18
 inactive_no_flow_0_1_0_0: flow_0_1_0_0 - 1000 edge_0_1_0_0 <= 0
 inactive_no_flow_0_2_0_0: flow_0_2_0_0 - 1000 edge_0_2_0_0 <= 0
 inactive_no_flow_0_3_0_0: flow_0_3_0_0 - 1000 edge_0_3_0_0 <= 0
 inactive_no_flow_0_4_0_0: flow_0_4_0_0 - 1000 edge_0_4_0_0 <= 0
 inactive_no_flow_0_6_0_0: flow_0_6_0_0 - 1000 edge_0_6_0_0 <= 0
 inactive_no_flow_0_7_0_0: flow_0_7_0_0 - 1000 edge_0_7_0_0 <= 0
 inactive_no_flow_0_9_0_0: flow_0_9_0_0 - 1000 edge_0_9_0_0 <= 0
 inactive_no_flow_0_10_0_0: flow_0_10_0_0 - 1000 edge_0_10_0_0 <= 0
 inactive_no_flow_0_12_0_0: flow_0_12_0_0 - 1000 edge_0_12_0_0 <= 0
 inactive_no_flow_0_13_0_0: flow_0_13_0_0 - 1000 edge_0_13_0_0 <= 0
 inactive_no_flow_0_17_0_0: flow_0_17_0_0 - 1000 edge_0_17_0_0 <= 0
 inactive_no_flow_1_2_0_0: flow_1_2_0_0 - 1000 edge_1_2_0_0 <= 0
 inactive_no_flow_1_3_0_0: flow_1_3_0_0 - 1000 edge_1_3_0_0 <= 0
 inactive_no_flow_1_6_0_0: flow_1_6_0_0 - 1000 edge_1_6_0_0 <= 0
 inactive_no_flow_1_7_0_0: flow_1_7_0_0 - 1000 edge_1_7_0_0 <= 0
 inactive_no_flow_1_11_0_0: flow_1_11_0_0 - 1000 edge_1_11_0_0 <= 0
 inactive_no_flow_1_12_0_0: flow_1_12_0_0 - 1000 edge_1_12_0_0 <= 0
 inactive_no_flow_1_18_0_0: flow_1_18_0_0 - 1000 edge_1_18_0_0 <= 0
 inactive_no_flow_2_1_0_0: flow_2_1_0_0 - 1000 edge_2_1_0_0 <= 0
 inactive_no_flow_2_3_0_0: flow_2_3_0_0 - 1000 edge_2_3_0_0 <= 0
 inactive_no_flow_2_4_0_0: flow_2_4_0_0 - 1000 edge_2_4_0_0 <= 0
 inactive_no_flow_2_5_0_0: flow_2_5_0_0 - 1000 edge_2_5_0_0 <= 0
 inactive_no_flow_2_6_0_0: flow_2_6_0_0 - 1000 edge_2_6_0_0 <= 0
 inactive_no_flow_2_7_0_0: flow_2_7_0_0 - 1000 edge_2_7_0_0 <= 0
 inactive_no_flow_2_8_0_0: flow_2_8_0_0 - 1000 edge_2_8_0_0 <= 0
 inactive_no_flow_2_9_0_0: flow_2_9_0_0 - 1000 edge_2_9_0_0 <= 0
 inactive_no_flow_2_10_0_0: flow_2_10_0_0 - 1000 edge_2_10_0_0 <= 0
 inactive_no_flow_2_11_0_0: flow_2_11_0_0 - 1000 edge_2_11_0_0 <= 0
 inactive_no_flow_2_12_0_0: flow_2_12_0_0 - 1000 edge_2_12_0_0 <= 0
 inactive_no_flow_2_13_0_0: flow_2_13_0_0 - 1000 edge_2_13_0_0 <= 0
 inactive_no_flow_2_15_0_0: flow_2_15_0_0 - 1000 edge_2_15_0_0 <= 0
 inactive_no_flow_2_17_0_0: flow_2_17_0_0 - 1000 edge_2_17_0_0 <= 0
 inactive_no_flow_2_18_0_0: flow_2_18_0_0 - 1000 edge_2_18_0_0 <= 0
 inactive_no_flow_3_1_0_0: flow_3_1_0_0 - 1000 edge_3_1_0_0 <= 0
 inactive_no_flow_3_2_0_0: flow_3_2_0_0 - 1000 edge_3_2_0_0 <= 0
 inactive_no_flow_3_4_0_0: flow_3_4_0_0 - 1000 edge_3_4_0_0 <= 0
 inactive_no_flow_3_5_0_0: flow_3_5_0_0 - 1000 edge_3_5_0_0 <= 0
 inactive_no_flow_3_6_0_0: flow_3_6_0_0 - 1000 edge_3_6_0_0 <= 0
 inactive_no_flow_3_7_0_0: flow_3_7_0_0 - 1000 edge_3_7_0_0 <= 0
 inactive_no_flow_3_8_0_0: flow_3_8_0_0 - 1000 edge_3_8_0_0 <= 0
 inactive_no_flow_3_9_0_0: flow_3_9_0_0 - 1000 edge_3_9_0_0 <= 0
 inactive_no_flow_3_10_0_0: flow_3_10_0_0 - 1000 edge_3_10_0_0 <= 0
 inactive_no_flow_3_11_0_0: flow_3_11_0_0 - 1000 edge_3_11_0_0 <= 0
 inactive_no_flow_3_12_0_0: flow_3_12_0_0 - 1000 edge_3_12_0_0 <= 0
 inactive_no_flow_3_13_0_0: flow_3_13_0_0 - 1000 edge_3_13_0_0 <= 0
 inactive_no_flow_3_15_0_0: flow_3_15_0_0 - 1000 edge_3_15_0_0 <= 0
 inactive_no_flow_3_17_0_0: flow_3_17_0_0 - 1000 edge_3_17_0_0 <= 0
 inactive_no_flow_3_18_0_0: flow_3_18_0_0 - 1000 edge_3_18_0_0 <= 0
 inactive_no_flow_4_1_0_0: flow_4_1_0_0 - 1000 edge_4_1_0_0 <= 0
 inactive_no_flow_4_2_0_0: flow_4_2_0_0 - 1000 edge_4_2_0_0 <= 0
 inactive_no_flow_4_3_0_0: flow_4_3_0_0 - 1000 edge_4_3_0_0 <= 0
 inactive_no_flow_4_6_0_0: flow_4_6_0_0 - 1000 edge_4_6_0_0 <= 0
 inactive_no_flow_4_7_0_0: flow_4_7_0_0 - 1000 edge_4_7_0_0 <= 0
 inactive_no_flow_4_8_0_0: flow_4_8_0_0 - 1000 edge_4_8_0_0 <= 0
 inactive_no_flow_4_9_0_0: flow_4_9_0_0 - 1000 edge_4_9_0_0 <= 0
 inactive_no_flow_4_13_0_0: flow_4_13_0_0 - 1000 edge_4_13_0_0 <= 0
 inactive_no_flow_4_15_0_0: flow_4_15_0_0 - 1000 edge_4_15_0_0 <= 0
 inactive_no_flow_4_17_0_0: flow_4_17_0_0 - 1000 edge_4_17_0_0 <= 0
 inactive_no_flow_4_18_0_0: flow_4_18_0_0 - 1000 edge_4_18_0_0 <= 0
 inactive_no_flow_6_1_0_0: flow_6_1_0_0 - 1000 edge_6_1_0_0 <= 0
 inactive_no_flow_6_2_0_0: flow_6_2_0_0 - 1000 edge_6_2_0_0 <= 0
 inactive_no_flow_6_3_0_0: flow_6_3_0_0 - 1000 edge_6_3_0_0 <= 0
 inactive_no_flow_6_4_0_0: flow_6_4_0_0 - 1000 edge_6_4_0_0 <= 0
 inactive_no_flow_6_5_0_0: flow_6_5_0_0 - 1000 edge_6_5_0_0 <= 0
 inactive_no_flow_6_7_0_0: flow_6_7_0_0 - 1000 edge_6_7_0_0 <= 0
 inactive_no_flow_6_8_0_0: flow_6_8_0_0 - 1000 edge_6_8_0_0 <= 0
 inactive_no_flow_6_9_0_0: flow_6_9_0_0 - 1000 edge_6_9_0_0 <= 0
 inactive_no_flow_6_10_0_0: flow_6_10_0_0 - 1000 edge_6_10_0_0 <= 0
 inactive_no_flow_6_11_0_0: flow_6_11_0_0 - 1000 edge_6_11_0_0 <= 0
 inactive_no_flow_6_12_0_0: flow_6_12_0_0 - 1000 edge_6_12_0_0 <= 0
 inactive_no_flow_6_13_0_0: flow_6_13_0_0 - 1000 edge_6_13_0_0 <= 0
 inactive_no_flow_6_15_0_0: flow_6_15_0_0 - 1000 edge_6_15_0_0 <= 0
 inactive_no_flow_6_17_0_0: flow_6_17_0_0 - 1000 edge_6_17_0_0 <= 0
 inactive_no_flow_6_18_0_0: flow_6_18_0_0 - 1000 edge_6_18_0_0 <= 0
 inactive_no_flow_7_1_0_0: flow_7_1_0_0 - 1000 edge_7_1_0_0 <= 0
 inactive_no_flow_7_2_0_0: flow_7_2_0_0 - 1000 edge_7_2_0_0 <= 0
 inactive_no_flow_7_3_0_0: flow_7_3_0_0 - 1000 edge_7_3_0_0 <= 0
 inactive_no_flow_7_4_0_0: flow_7_4_0_0 - 1000 edge_7_4_0_0 <= 0
 inactive_no_flow_7_5_0_0: flow_7_5_0_0 - 1000 edge_7_5_0_0 <= 0
 inactive_no_flow_7_6_0_0: flow_7_6_0_0 - 1000 edge_7_6_0_0 <= 0
 inactive_no_flow_7_8_0_0: flow_7_8_0_0 - 1000 edge_7_8_0_0 <= 0
 inactive_no_flow_7_9_0_0: flow_7_9_0_0 - 1000 edge_7_9_0_0 <= 0
 inactive_no_flow_7_10_0_0: flow_7_10_0_0 - 1000 edge_7_10_0_0 <= 0
 inactive_no_flow_7_12_0_0: flow_7_12_0_0 - 1000 edge_7_12_0_0 <= 0
 inactive_no_flow_7_13_0_0: flow_7_13_0_0 - 1000 edge_7_13_0_0 <= 0
 inactive_no_flow_7_15_0_0: flow_7_15_0_0 - 1000 edge_7_15_0_0 <= 0
 inactive_no_flow_7_17_0_0: flow_7_17_0_0 - 1000 edge_7_17_0_0 <= 0
 inactive_no_flow_7_18_0_0: flow_7_18_0_0 - 1000 edge_7_18_0_0 <= 0
 inactive_no_flow_8_7_0_0: flow_8_7_0_0 - 1000 edge_8_7_0_0 <= 0
 inactive_no_flow_8_9_0_0: flow_8_9_0_0 - 1000 edge_8_9_0_0 <= 0
 inactive_no_flow_8_13_0_0: flow_8_13_0_0 - 1000 edge_8_13_0_0 <= 0
 inactive_no_flow_9_1_0_0: flow_9_1_0_0 - 1000 edge_9_1_0_0 <= 0
 inactive_no_flow_9_2_0_0: flow_9_2_0_0 - 1000 edge_9_2_0_0 <= 0
 inactive_no_flow_9_3_0_0: flow_9_3_0_0 - 1000 edge_9_3_0_0 <= 0
 inactive_no_flow_9_4_0_0: flow_9_4_0_0 - 1000 edge_9_4_0_0 <= 0
 inactive_no_flow_9_6_0_0: flow_9_6_0_0 - 1000 edge_9_6_0_0 <= 0
 inactive_no_flow_9_7_0_0: flow_9_7_0_0 - 1000 edge_9_7_0_0 <= 0
 inactive_no_flow_9_8_0_0: flow_9_8_0_0 - 1000 edge_9_8_0_0 <= 0
 inactive_no_flow_9_11_0_0: flow_9_11_0_0 - 1000 edge_9_11_0_0 <= 0
 inactive_no_flow_9_12_0_0: flow_9_12_0_0 - 1000 edge_9_12_0_0 <= 0
 inactive_no_flow_9_13_0_0: flow_9_13_0_0 - 1000 edge_9_13_0_0 <= 0
 inactive_no_flow_9_15_0_0: flow_9_15_0_0 - 1000 edge_9_15_0_0 <= 0
 inactive_no_flow_9_17_0_0: flow_9_17_0_0 - 1000 edge_9_17_0_0 <= 0
 inactive_no_flow_9_18_0_0: flow_9_18_0_0 - 1000 edge_9_18_0_0 <= 0
 inactive_no_flow_10_2_0_0: flow_10_2_0_0 - 1000 edge_10_2_0_0 <= 0
 inactive_no_flow_10_3_0_0: flow_10_3_0_0 - 1000 edge_10_3_0_0 <= 0
 inactive_no_flow_10_5_0_0: flow_10_5_0_0 - 1000 edge_10_5_0_0 <= 0
 inactive_no_flow_10_6_0_0: flow_10_6_0_0 - 1000 edge_10_6_0_0 <= 0
 inactive_no_flow_10_7_0_0: flow_10_7_0_0 - 1000 edge_10_7_0_0 <= 0
 inactive_no_flow_10_8_0_0: flow_10_8_0_0 - 1000 edge_10_8_0_0 <= 0
 inactive_no_flow_10_12_0_0: flow_10_12_0_0 - 1000 edge_10_12_0_0 <= 0
 inactive_no_flow_10_13_0_0: flow_10_13_0_0 - 1000 edge_10_13_0_0 <= 0
 inactive_no_flow_10_15_0_0: flow_10_15_0_0 - 1000 edge_10_15_0_0 <= 0
 inactive_no_flow_10_17_0_0: flow_10_17_0_0 - 1000 edge_10_17_0_0 <= 0
 inactive_no_flow_10_18_0_0: flow_10_18_0_0 - 1000 edge_10_18_0_0 <= 0
 inactive_no_flow_12_2_0_0: flow_12_2_0_0 - 1000 edge_12_2_0_0 <= 0
 inactive_no_flow_12_5_0_0: flow_12_5_0_0 - 1000 edge_12_5_0_0 <= 0
 inactive_no_flow_12_6_0_0: flow_12_6_0_0 - 1000 edge_12_6_0_0 <= 0
 inactive_no_flow_12_7_0_0: flow_12_7_0_0 - 1000 edge_12_7_0_0 <= 0
 inactive_no_flow_12_8_0_0: flow_12_8_0_0 - 1000 edge_12_8_0_0 <= 0
 inactive_no_flow_12_10_0_0: flow_12_10_0_0 - 1000 edge_12_10_0_0 <= 0
 inactive_no_flow_12_11_0_0: flow_12_11_0_0 - 1000 edge_12_11_0_0 <= 0
 inactive_no_flow_12_13_0_0: flow_12_13_0_0 - 1000 edge_12_13_0_0 <= 0
 inactive_no_flow_12_15_0_0: flow_12_15_0_0 - 1000 edge_12_15_0_0 <= 0
 inactive_no_flow_12_17_0_0: flow_12_17_0_0 - 1000 edge_12_17_0_0 <= 0
 inactive_no_flow_12_18_0_0: flow_12_18_0_0 - 1000 edge_12_18_0_0 <= 0
 inactive_no_flow_13_1_0_0: flow_13_1_0_0 - 1000 edge_13_1_0_0 <= 0
 inactive_no_flow_13_2_0_0: flow_13_2_0_0 - 1000 edge_13_2_0_0 <= 0
 inactive_no_flow_13_3_0_0: flow_13_3_0_0 - 1000 edge_13_3_0_0 <= 0
 inactive_no_flow_13_4_0_0: flow_13_4_0_0 - 1000 edge_13_4_0_0 <= 0
 inactive_no_flow_13_5_0_0: flow_13_5_0_0 - 1000 edge_13_5_0_0 <= 0
 inactive_no_flow_13_6_0_0: flow_13_6_0_0 - 1000 edge_13_6_0_0 <= 0
 inactive_no_flow_13_7_0_0: flow_13_7_0_0 - 1000 edge_13_7_0_0 <= 0
 inactive_no_flow_13_8_0_0: flow_13_8_0_0 - 1000 edge_13_8_0_0 <= 0
 inactive_no_flow_13_9_0_0: flow_13_9_0_0 - 1000 edge_13_9_0_0 <= 0
 inactive_no_flow_13_10_0_0: flow_13_10_0_0 - 1000 edge_13_10_0_0 <= 0
 inactive_no_flow_13_11_0_0: flow_13_11_0_0 - 1000 edge_13_11_0_0 <= 0
 inactive_no_flow_13_12_0_0: flow_13_12_0_0 - 1000 edge_13_12_0_0 <= 0
 inactive_no_flow_13_15_0_0: flow_13_15_0_0 - 1000 edge_13_15_0_0 <= 0
 inactive_no_flow_13_17_0_0: flow_13_17_0_0 - 1000 edge_13_17_0_0 <= 0
 inactive_no_flow_13_18_0_0: flow_13_18_0_0 - 1000 edge_13_18_0_0 <= 0
 inactive_no_flow_15_12_0_0: flow_15_12_0_0 - 1000 edge_15_12_0_0 <= 0
 inactive_no_flow_15_13_0_0: flow_15_13_0_0 - 1000 edge_15_13_0_0 <= 0
 inactive_no_flow_15_17_0_0: flow_15_17_0_0 - 1000 edge_15_17_0_0 <= 0
 inactive_no_flow_16_3_0_0: flow_16_3_0_0 - 1000 edge_16_3_0_0 <= 0
 inactive_no_flow_16_18_0_0: flow_16_18_0_0 - 1000 edge_16_18_0_0 <= 0
 inactive_no_flow_17_1_0_0: flow_17_1_0_0 - 1000 edge_17_1_0_0 <= 0
 inactive_no_flow_17_2_0_0: flow_17_2_0_0 - 1000 edge_17_2_0_0 <= 0
 inactive_no_flow_17_3_0_0: flow_17_3_0_0 - 1000 edge_17_3_0_0 <= 0
 inactive_no_flow_17_4_0_0: flow_17_4_0_0 - 1000 edge_17_4_0_0 <= 0
 inactive_no_flow_17_5_0_0: flow_17_5_0_0 - 1000 edge_17_5_0_0 <= 0
 inactive_no_flow_17_6_0_0: flow_17_6_0_0 - 1000 edge_17_6_0_0 <= 0
 inactive_no_flow_17_7_0_0: flow_17_7_0_0 - 1000 edge_17_7_0_0 <= 0
 inactive_no_flow_17_8_0_0: flow_17_8_0_0 - 1000 edge_17_8_0_0 <= 0
 inactive_no_flow_17_9_0_0: flow_17_9_0_0 - 1000 edge_17_9_0_0 <= 0
 inactive_no_flow_17_10_0_0: flow_17_10_0_0 - 1000 edge_17_10_0_0 <= 0
 inactive_no_flow_17_11_0_0: flow_17_11_0_0 - 1000 edge_17_11_0_0 <= 0
 inactive_no_flow_17_12_0_0: flow_17_12_0_0 - 1000 edge_17_12_0_0 <= 0
 inactive_no_flow_17_13_0_0: flow_17_13_0_0 - 1000 edge_17_13_0_0 <= 0
 inactive_no_flow_17_15_0_0: flow_17_15_0_0 - 1000 edge_17_15_0_0 <= 0
 inactive_no_flow_17_16_0_0: flow_17_16_0_0 - 1000 edge_17_16_0_0 <= 0
 inactive_no_flow_17_18_0_0: flow_17_18_0_0 - 1000 edge_17_18_0_0 <= 0
Bounds
Binaries
 edge_0_1_0_0 edge_0_2_0_0 edge_0_3_0_0 edge_0_4_0_0 edge_0_6_0_0
 edge_0_7_0_0 edge_0_9_0_0 edge_0_10_0_0 edge_0_12_0_0 edge_0_13_0_0
 edge_0_17_0_0 edge_1_2_0_0 edge_1_3_0_0 edge_1_6_0_0 edge_1_7_0_0
 edge_1_11_0_0 edge_1_12_0_0 edge_1_18_0_0 edge_2_1_0_0 edge_2_3_0_0
 edge_2_4_0_0 edge_2_5_0_0 edge_2_6_0_0 edge_2_7_0_0 edge_2_8_0_0
 edge_2_9_0_0 edge_2_10_0_0 edge_2_11_0_0 edge_2_12_0_0 edge_2_13_0_0
 edge_2_15_0_0 edge_2_17_0_0 edge_2_18_0_0 edge_3_1_0_0 edge_3_2_0_0
 edge_3_4_0_0 edge_3_5_0_0 edge_3_6_0_0 edge_3_7_0_0 edge_3_8_0_0
 edge_3_9_0_0 edge_3_10_0_0 edge_3_11_0_0 edge_3_12_0_0 edge_3_13_0_0
 edge_3_15_0_0 edge_3_17_0_0 edge_3_18_0_0 edge_4_1_0_0 edge_4_2_0_0
 edge_4_3_0_0 edge_4_6_0_0 edge_4_7_0_0 edge_4_8_0_0 edge_4_9_0_0
 edge_4_13_0_0 edge_4_15_0_0 edge_4_17_0_0 edge_4_18_0_0 edge_6_1_0_0
 edge_6_2_0_0 edge_6_3_0_0 edge_6_4_0_0 edge_6_5_0_0 edge_6_7_0_0
 edge_6_8_0_0 edge_6_9_0_0 edge_6_10_0_0 edge_6_11_0_0 edge_6_12_0_0
 edge_6_13_0_0 edge_6_15_0_0 edge_6_17_0_0 edge_6_18_0_0 edge_7_1_0_0
 edge_7_2_0_0 edge_7_3_0_0 edge_7_4_0_0 edge_7_5_0_0 edge_7_6_0_0
 edge_7_8_0_0 edge_7_9_0_0 edge_7_10_0_0 edge_7_12_0_0 edge_7_13_0_0
 edge_7_15_0_0 edge_7_17_0_0 edge_7_18_0_0 edge_8_7_0_0 edge_8_9_0_0
 edge_8_13_0_0 edge_9_1_0_0 edge_9_2_0_0 edge_9_3_0_0 edge_9_4_0_0
 edge_9_6_0_0 edge_9_7_0_0 edge_9_8_0_0 edge_9_11_0_0 edge_9_12_0_0
 edge_9_13_0_0 edge_9_15_0_0 edge_9_17_0_0 edge_9_18_0_0 edge_10_2_0_0
 edge_10_3_0_0 edge_10_5_0_0 edge_10_6_0_0 edge_10_7_0_0 edge_10_8_0_0
 edge_10_12_0_0 edge_10_13_0_0 edge_10_15_0_0 edge_10_17_0_0 edge_10_18_0_0
 edge_12_2_0_0 edge_12_5_0_0 edge_12_6_0_0 edge_12_7_0_0 edge_12_8_0_0
 edge_12_10_0_0 edge_12_11_0_0 edge_12_13_0_0 edge_12_15_0_0 edge_12_17_0_0
 edge_12_18_0_0 edge_13_1_0_0 edge_13_2_0_0 edge_13_3_0_0 edge_13_4_0_0
 edge_13_5_0_0 edge_13_6_0_0 edge_13_7_0_0 edge_13_8_0_0 edge_13_9_0_0
 edge_13_10_0_0 edge_13_11_0_0 edge_13_12_0_0 edge_13_15_0_0 edge_13_17_0_0
 edge_13_18_0_0 edge_15_12_0_0 edge_15_13_0_0 edge_15_17_0_0 edge_16_3_0_0
 edge_16_18_0_0 edge_17_1_0_0 edge_17_2_0_0 edge_17_3_0_0 edge_17_4_0_0
 edge_17_5_0_0 edge_17_6_0_0 edge_17_7_0_0 edge_17_8_0_0 edge_17_9_0_0
 edge_17_10_0_0 edge_17_11_0_0 edge_17_12_0_0 edge_17_13_0_0 edge_17_15_0_0
 edge_17_16_0_0 edge_17_18_0_0
End
